; benchmark generated from python API
(set-info :status unknown)
(declare-fun cell_1_3 () Int)
(declare-fun cell_1_4 () Int)
(declare-fun cell_1_7 () Int)
(declare-fun cell_2_1 () Int)
(declare-fun cell_2_5 () Int)
(declare-fun cell_3_7 () Int)
(declare-fun cell_3_8 () Int)
(declare-fun cell_4_2 () Int)
(declare-fun cell_4_6 () Int)
(declare-fun cell_5_4 () Int)
(declare-fun cell_5_9 () Int)
(declare-fun cell_6_2 () Int)
(declare-fun cell_6_7 () Int)
(declare-fun cell_7_5 () Int)
(declare-fun cell_7_9 () Int)
(declare-fun cell_8_6 () Int)
(declare-fun cell_8_8 () Int)
(declare-fun cell_9_1 () Int)
(declare-fun cell_9_3 () Int)
(declare-fun cell_1_1 () Int)
(declare-fun cell_3_1 () Int)
(declare-fun cell_4_1 () Int)
(declare-fun cell_5_1 () Int)
(declare-fun cell_6_1 () Int)
(declare-fun cell_7_1 () Int)
(declare-fun cell_8_1 () Int)
(declare-fun cell_1_2 () Int)
(declare-fun cell_2_2 () Int)
(declare-fun cell_3_2 () Int)
(declare-fun cell_5_2 () Int)
(declare-fun cell_7_2 () Int)
(declare-fun cell_8_2 () Int)
(declare-fun cell_9_2 () Int)
(declare-fun cell_2_3 () Int)
(declare-fun cell_3_3 () Int)
(declare-fun cell_4_3 () Int)
(declare-fun cell_5_3 () Int)
(declare-fun cell_6_3 () Int)
(declare-fun cell_7_3 () Int)
(declare-fun cell_8_3 () Int)
(declare-fun cell_2_4 () Int)
(declare-fun cell_3_4 () Int)
(declare-fun cell_4_4 () Int)
(declare-fun cell_6_4 () Int)
(declare-fun cell_7_4 () Int)
(declare-fun cell_8_4 () Int)
(declare-fun cell_9_4 () Int)
(declare-fun cell_1_5 () Int)
(declare-fun cell_3_5 () Int)
(declare-fun cell_4_5 () Int)
(declare-fun cell_5_5 () Int)
(declare-fun cell_6_5 () Int)
(declare-fun cell_8_5 () Int)
(declare-fun cell_9_5 () Int)
(declare-fun cell_1_6 () Int)
(declare-fun cell_2_6 () Int)
(declare-fun cell_3_6 () Int)
(declare-fun cell_5_6 () Int)
(declare-fun cell_6_6 () Int)
(declare-fun cell_7_6 () Int)
(declare-fun cell_9_6 () Int)
(declare-fun cell_2_7 () Int)
(declare-fun cell_4_7 () Int)
(declare-fun cell_5_7 () Int)
(declare-fun cell_7_7 () Int)
(declare-fun cell_8_7 () Int)
(declare-fun cell_9_7 () Int)
(declare-fun cell_1_8 () Int)
(declare-fun cell_2_8 () Int)
(declare-fun cell_4_8 () Int)
(declare-fun cell_5_8 () Int)
(declare-fun cell_6_8 () Int)
(declare-fun cell_7_8 () Int)
(declare-fun cell_9_8 () Int)
(declare-fun cell_1_9 () Int)
(declare-fun cell_2_9 () Int)
(declare-fun cell_3_9 () Int)
(declare-fun cell_4_9 () Int)
(declare-fun cell_6_9 () Int)
(declare-fun cell_8_9 () Int)
(declare-fun cell_9_9 () Int)
(assert
 (= cell_1_3 2))
(assert
 (= cell_1_4 1))
(assert
 (= cell_1_7 3))
(assert
 (= cell_2_1 1))
(assert
 (= cell_2_5 2))
(assert
 (= cell_3_7 1))
(assert
 (= cell_3_8 2))
(assert
 (= cell_4_2 2))
(assert
 (= cell_4_6 1))
(assert
 (= cell_5_4 2))
(assert
 (= cell_5_9 1))
(assert
 (= cell_6_2 1))
(assert
 (= cell_6_7 2))
(assert
 (= cell_7_5 1))
(assert
 (= cell_7_9 2))
(assert
 (= cell_8_6 2))
(assert
 (= cell_8_8 1))
(assert
 (= cell_9_1 2))
(assert
 (= cell_9_3 1))
(assert
 (let (($x3034 (= cell_1_1 9)))
 (let (($x7476 (= cell_1_1 8)))
 (let (($x8768 (= cell_1_1 7)))
 (let (($x2247 (= cell_1_1 6)))
 (let (($x1152 (= cell_1_1 5)))
 (let (($x7161 (= cell_1_1 4)))
 (let (($x1970 (= cell_1_1 3)))
 (let (($x8984 (= cell_1_1 2)))
 (let (($x5159 (= cell_1_1 1)))
 (or $x5159 $x8984 $x1970 $x7161 $x1152 $x2247 $x8768 $x7476 $x3034)))))))))))
(assert
 (let (($x9423 (= cell_2_1 1)))
 (or $x9423 (= cell_2_1 2) (= cell_2_1 3) (= cell_2_1 4) (= cell_2_1 5) (= cell_2_1 6) (= cell_2_1 7) (= cell_2_1 8) (= cell_2_1 9))))
(assert
 (let (($x2052 (= cell_3_1 9)))
 (let (($x8717 (= cell_3_1 8)))
 (let (($x3801 (= cell_3_1 7)))
 (let (($x6958 (= cell_3_1 6)))
 (let (($x9560 (= cell_3_1 5)))
 (let (($x6101 (= cell_3_1 4)))
 (let (($x7911 (= cell_3_1 3)))
 (let (($x1235 (= cell_3_1 2)))
 (let (($x5456 (= cell_3_1 1)))
 (or $x5456 $x1235 $x7911 $x6101 $x9560 $x6958 $x3801 $x8717 $x2052)))))))))))
(assert
 (let (($x3628 (= cell_4_1 9)))
 (let (($x4267 (= cell_4_1 8)))
 (let (($x9018 (= cell_4_1 7)))
 (let (($x2119 (= cell_4_1 6)))
 (let (($x10267 (= cell_4_1 5)))
 (let (($x7131 (= cell_4_1 4)))
 (let (($x3859 (= cell_4_1 3)))
 (let (($x6359 (= cell_4_1 2)))
 (let (($x3088 (= cell_4_1 1)))
 (or $x3088 $x6359 $x3859 $x7131 $x10267 $x2119 $x9018 $x4267 $x3628)))))))))))
(assert
 (let (($x7048 (= cell_5_1 9)))
 (let (($x4286 (= cell_5_1 8)))
 (let (($x6089 (= cell_5_1 7)))
 (let (($x1158 (= cell_5_1 6)))
 (let (($x7977 (= cell_5_1 5)))
 (let (($x399 (= cell_5_1 4)))
 (let (($x529 (= cell_5_1 3)))
 (let (($x9851 (= cell_5_1 2)))
 (let (($x3614 (= cell_5_1 1)))
 (or $x3614 $x9851 $x529 $x399 $x7977 $x1158 $x6089 $x4286 $x7048)))))))))))
(assert
 (let (($x3522 (= cell_6_1 9)))
 (let (($x8779 (= cell_6_1 8)))
 (let (($x2996 (= cell_6_1 7)))
 (let (($x3134 (= cell_6_1 6)))
 (let (($x7571 (= cell_6_1 5)))
 (let (($x5863 (= cell_6_1 4)))
 (let (($x7738 (= cell_6_1 3)))
 (let (($x6671 (= cell_6_1 2)))
 (let (($x3954 (= cell_6_1 1)))
 (or $x3954 $x6671 $x7738 $x5863 $x7571 $x3134 $x2996 $x8779 $x3522)))))))))))
(assert
 (let (($x4103 (= cell_7_1 9)))
 (let (($x9690 (= cell_7_1 8)))
 (let (($x5239 (= cell_7_1 7)))
 (let (($x1750 (= cell_7_1 6)))
 (let (($x246 (= cell_7_1 5)))
 (let (($x3997 (= cell_7_1 4)))
 (let (($x7566 (= cell_7_1 3)))
 (let (($x2774 (= cell_7_1 2)))
 (let (($x9424 (= cell_7_1 1)))
 (or $x9424 $x2774 $x7566 $x3997 $x246 $x1750 $x5239 $x9690 $x4103)))))))))))
(assert
 (let (($x7491 (= cell_8_1 9)))
 (let (($x5965 (= cell_8_1 8)))
 (let (($x6480 (= cell_8_1 7)))
 (let (($x7020 (= cell_8_1 6)))
 (let (($x9761 (= cell_8_1 5)))
 (let (($x4839 (= cell_8_1 4)))
 (let (($x4847 (= cell_8_1 3)))
 (let (($x8300 (= cell_8_1 2)))
 (let (($x10022 (= cell_8_1 1)))
 (or $x10022 $x8300 $x4847 $x4839 $x9761 $x7020 $x6480 $x5965 $x7491)))))))))))
(assert
 (let (($x8941 (= cell_9_1 2)))
 (or (= cell_9_1 1) $x8941 (= cell_9_1 3) (= cell_9_1 4) (= cell_9_1 5) (= cell_9_1 6) (= cell_9_1 7) (= cell_9_1 8) (= cell_9_1 9))))
(assert
 (let (($x491 (= cell_1_2 9)))
 (let (($x3884 (= cell_1_2 8)))
 (let (($x5093 (= cell_1_2 7)))
 (let (($x5868 (= cell_1_2 6)))
 (let (($x6213 (= cell_1_2 5)))
 (let (($x442 (= cell_1_2 4)))
 (let (($x4614 (= cell_1_2 3)))
 (let (($x7257 (= cell_1_2 2)))
 (let (($x4240 (= cell_1_2 1)))
 (or $x4240 $x7257 $x4614 $x442 $x6213 $x5868 $x5093 $x3884 $x491)))))))))))
(assert
 (let (($x615 (= cell_2_2 9)))
 (let (($x1913 (= cell_2_2 8)))
 (let (($x463 (= cell_2_2 7)))
 (let (($x5473 (= cell_2_2 6)))
 (let (($x8036 (= cell_2_2 5)))
 (let (($x2159 (= cell_2_2 4)))
 (let (($x4360 (= cell_2_2 3)))
 (let (($x5746 (= cell_2_2 2)))
 (let (($x3941 (= cell_2_2 1)))
 (or $x3941 $x5746 $x4360 $x2159 $x8036 $x5473 $x463 $x1913 $x615)))))))))))
(assert
 (let (($x8839 (= cell_3_2 9)))
 (let (($x7109 (= cell_3_2 8)))
 (let (($x2958 (= cell_3_2 7)))
 (let (($x5076 (= cell_3_2 6)))
 (let (($x4947 (= cell_3_2 5)))
 (let (($x2248 (= cell_3_2 4)))
 (let (($x6819 (= cell_3_2 3)))
 (let (($x5540 (= cell_3_2 2)))
 (let (($x294 (= cell_3_2 1)))
 (or $x294 $x5540 $x6819 $x2248 $x4947 $x5076 $x2958 $x7109 $x8839)))))))))))
(assert
 (let (($x7924 (= cell_4_2 2)))
 (or (= cell_4_2 1) $x7924 (= cell_4_2 3) (= cell_4_2 4) (= cell_4_2 5) (= cell_4_2 6) (= cell_4_2 7) (= cell_4_2 8) (= cell_4_2 9))))
(assert
 (let (($x9447 (= cell_5_2 9)))
 (let (($x1761 (= cell_5_2 8)))
 (let (($x9395 (= cell_5_2 7)))
 (let (($x6487 (= cell_5_2 6)))
 (let (($x6232 (= cell_5_2 5)))
 (let (($x8450 (= cell_5_2 4)))
 (let (($x8592 (= cell_5_2 3)))
 (let (($x8370 (= cell_5_2 2)))
 (let (($x7614 (= cell_5_2 1)))
 (or $x7614 $x8370 $x8592 $x8450 $x6232 $x6487 $x9395 $x1761 $x9447)))))))))))
(assert
 (let (($x2635 (= cell_6_2 1)))
 (or $x2635 (= cell_6_2 2) (= cell_6_2 3) (= cell_6_2 4) (= cell_6_2 5) (= cell_6_2 6) (= cell_6_2 7) (= cell_6_2 8) (= cell_6_2 9))))
(assert
 (let (($x3982 (= cell_7_2 9)))
 (let (($x1450 (= cell_7_2 8)))
 (let (($x3241 (= cell_7_2 7)))
 (let (($x1601 (= cell_7_2 6)))
 (let (($x8127 (= cell_7_2 5)))
 (let (($x1633 (= cell_7_2 4)))
 (let (($x10188 (= cell_7_2 3)))
 (let (($x3112 (= cell_7_2 2)))
 (let (($x2780 (= cell_7_2 1)))
 (or $x2780 $x3112 $x10188 $x1633 $x8127 $x1601 $x3241 $x1450 $x3982)))))))))))
(assert
 (let (($x2714 (= cell_8_2 9)))
 (let (($x1733 (= cell_8_2 8)))
 (let (($x2973 (= cell_8_2 7)))
 (let (($x5120 (= cell_8_2 6)))
 (let (($x7315 (= cell_8_2 5)))
 (let (($x5317 (= cell_8_2 4)))
 (let (($x3742 (= cell_8_2 3)))
 (let (($x9899 (= cell_8_2 2)))
 (let (($x4434 (= cell_8_2 1)))
 (or $x4434 $x9899 $x3742 $x5317 $x7315 $x5120 $x2973 $x1733 $x2714)))))))))))
(assert
 (let (($x4463 (= cell_9_2 9)))
 (let (($x5354 (= cell_9_2 8)))
 (let (($x3947 (= cell_9_2 7)))
 (let (($x188 (= cell_9_2 6)))
 (let (($x5215 (= cell_9_2 5)))
 (let (($x9292 (= cell_9_2 4)))
 (let (($x488 (= cell_9_2 3)))
 (let (($x1460 (= cell_9_2 2)))
 (let (($x2319 (= cell_9_2 1)))
 (or $x2319 $x1460 $x488 $x9292 $x5215 $x188 $x3947 $x5354 $x4463)))))))))))
(assert
 (let (($x5861 (= cell_1_3 2)))
 (or (= cell_1_3 1) $x5861 (= cell_1_3 3) (= cell_1_3 4) (= cell_1_3 5) (= cell_1_3 6) (= cell_1_3 7) (= cell_1_3 8) (= cell_1_3 9))))
(assert
 (let (($x8488 (= cell_2_3 9)))
 (let (($x3841 (= cell_2_3 8)))
 (let (($x4127 (= cell_2_3 7)))
 (let (($x8823 (= cell_2_3 6)))
 (let (($x1076 (= cell_2_3 5)))
 (let (($x1976 (= cell_2_3 4)))
 (let (($x6003 (= cell_2_3 3)))
 (let (($x2529 (= cell_2_3 2)))
 (let (($x7059 (= cell_2_3 1)))
 (or $x7059 $x2529 $x6003 $x1976 $x1076 $x8823 $x4127 $x3841 $x8488)))))))))))
(assert
 (let (($x3247 (= cell_3_3 9)))
 (let (($x611 (= cell_3_3 8)))
 (let (($x327 (= cell_3_3 7)))
 (let (($x7002 (= cell_3_3 6)))
 (let (($x568 (= cell_3_3 5)))
 (let (($x5273 (= cell_3_3 4)))
 (let (($x7936 (= cell_3_3 3)))
 (let (($x10211 (= cell_3_3 2)))
 (let (($x10060 (= cell_3_3 1)))
 (or $x10060 $x10211 $x7936 $x5273 $x568 $x7002 $x327 $x611 $x3247)))))))))))
(assert
 (let (($x5811 (= cell_4_3 9)))
 (let (($x3461 (= cell_4_3 8)))
 (let (($x5672 (= cell_4_3 7)))
 (let (($x7342 (= cell_4_3 6)))
 (let (($x1669 (= cell_4_3 5)))
 (let (($x7570 (= cell_4_3 4)))
 (let (($x6986 (= cell_4_3 3)))
 (let (($x9373 (= cell_4_3 2)))
 (let (($x2170 (= cell_4_3 1)))
 (or $x2170 $x9373 $x6986 $x7570 $x1669 $x7342 $x5672 $x3461 $x5811)))))))))))
(assert
 (let (($x6162 (= cell_5_3 9)))
 (let (($x1711 (= cell_5_3 8)))
 (let (($x9978 (= cell_5_3 7)))
 (let (($x8844 (= cell_5_3 6)))
 (let (($x1323 (= cell_5_3 5)))
 (let (($x8278 (= cell_5_3 4)))
 (let (($x5825 (= cell_5_3 3)))
 (let (($x80 (= cell_5_3 2)))
 (let (($x5749 (= cell_5_3 1)))
 (or $x5749 $x80 $x5825 $x8278 $x1323 $x8844 $x9978 $x1711 $x6162)))))))))))
(assert
 (let (($x7589 (= cell_6_3 9)))
 (let (($x5495 (= cell_6_3 8)))
 (let (($x4516 (= cell_6_3 7)))
 (let (($x385 (= cell_6_3 6)))
 (let (($x3252 (= cell_6_3 5)))
 (let (($x7386 (= cell_6_3 4)))
 (let (($x8727 (= cell_6_3 3)))
 (let (($x7901 (= cell_6_3 2)))
 (let (($x9155 (= cell_6_3 1)))
 (or $x9155 $x7901 $x8727 $x7386 $x3252 $x385 $x4516 $x5495 $x7589)))))))))))
(assert
 (let (($x2526 (= cell_7_3 9)))
 (let (($x2477 (= cell_7_3 8)))
 (let (($x5418 (= cell_7_3 7)))
 (let (($x184 (= cell_7_3 6)))
 (let (($x4878 (= cell_7_3 5)))
 (let (($x6798 (= cell_7_3 4)))
 (let (($x7993 (= cell_7_3 3)))
 (let (($x2607 (= cell_7_3 2)))
 (let (($x5979 (= cell_7_3 1)))
 (or $x5979 $x2607 $x7993 $x6798 $x4878 $x184 $x5418 $x2477 $x2526)))))))))))
(assert
 (let (($x3385 (= cell_8_3 9)))
 (let (($x3035 (= cell_8_3 8)))
 (let (($x4780 (= cell_8_3 7)))
 (let (($x8684 (= cell_8_3 6)))
 (let (($x598 (= cell_8_3 5)))
 (let (($x6200 (= cell_8_3 4)))
 (let (($x7240 (= cell_8_3 3)))
 (let (($x2782 (= cell_8_3 2)))
 (let (($x6761 (= cell_8_3 1)))
 (or $x6761 $x2782 $x7240 $x6200 $x598 $x8684 $x4780 $x3035 $x3385)))))))))))
(assert
 (let (($x4242 (= cell_9_3 1)))
 (or $x4242 (= cell_9_3 2) (= cell_9_3 3) (= cell_9_3 4) (= cell_9_3 5) (= cell_9_3 6) (= cell_9_3 7) (= cell_9_3 8) (= cell_9_3 9))))
(assert
 (let (($x5658 (= cell_1_4 1)))
 (or $x5658 (= cell_1_4 2) (= cell_1_4 3) (= cell_1_4 4) (= cell_1_4 5) (= cell_1_4 6) (= cell_1_4 7) (= cell_1_4 8) (= cell_1_4 9))))
(assert
 (let (($x6928 (= cell_2_4 9)))
 (let (($x2432 (= cell_2_4 8)))
 (let (($x1930 (= cell_2_4 7)))
 (let (($x3902 (= cell_2_4 6)))
 (let (($x3292 (= cell_2_4 5)))
 (let (($x2472 (= cell_2_4 4)))
 (let (($x6498 (= cell_2_4 3)))
 (let (($x4271 (= cell_2_4 2)))
 (let (($x8230 (= cell_2_4 1)))
 (or $x8230 $x4271 $x6498 $x2472 $x3292 $x3902 $x1930 $x2432 $x6928)))))))))))
(assert
 (let (($x3773 (= cell_3_4 9)))
 (let (($x699 (= cell_3_4 8)))
 (let (($x4918 (= cell_3_4 7)))
 (let (($x4865 (= cell_3_4 6)))
 (let (($x2244 (= cell_3_4 5)))
 (let (($x6428 (= cell_3_4 4)))
 (let (($x10108 (= cell_3_4 3)))
 (let (($x3610 (= cell_3_4 2)))
 (let (($x7698 (= cell_3_4 1)))
 (or $x7698 $x3610 $x10108 $x6428 $x2244 $x4865 $x4918 $x699 $x3773)))))))))))
(assert
 (let (($x1443 (= cell_4_4 9)))
 (let (($x1967 (= cell_4_4 8)))
 (let (($x1696 (= cell_4_4 7)))
 (let (($x33 (= cell_4_4 6)))
 (let (($x5415 (= cell_4_4 5)))
 (let (($x3594 (= cell_4_4 4)))
 (let (($x2724 (= cell_4_4 3)))
 (let (($x8634 (= cell_4_4 2)))
 (let (($x8243 (= cell_4_4 1)))
 (or $x8243 $x8634 $x2724 $x3594 $x5415 $x33 $x1696 $x1967 $x1443)))))))))))
(assert
 (let (($x64 (= cell_5_4 2)))
 (or (= cell_5_4 1) $x64 (= cell_5_4 3) (= cell_5_4 4) (= cell_5_4 5) (= cell_5_4 6) (= cell_5_4 7) (= cell_5_4 8) (= cell_5_4 9))))
(assert
 (let (($x538 (= cell_6_4 9)))
 (let (($x4554 (= cell_6_4 8)))
 (let (($x8957 (= cell_6_4 7)))
 (let (($x3373 (= cell_6_4 6)))
 (let (($x8494 (= cell_6_4 5)))
 (let (($x5931 (= cell_6_4 4)))
 (let (($x4669 (= cell_6_4 3)))
 (let (($x3050 (= cell_6_4 2)))
 (let (($x1796 (= cell_6_4 1)))
 (or $x1796 $x3050 $x4669 $x5931 $x8494 $x3373 $x8957 $x4554 $x538)))))))))))
(assert
 (let (($x298 (= cell_7_4 9)))
 (let (($x6138 (= cell_7_4 8)))
 (let (($x2288 (= cell_7_4 7)))
 (let (($x6858 (= cell_7_4 6)))
 (let (($x7200 (= cell_7_4 5)))
 (let (($x8179 (= cell_7_4 4)))
 (let (($x443 (= cell_7_4 3)))
 (let (($x2545 (= cell_7_4 2)))
 (let (($x8039 (= cell_7_4 1)))
 (or $x8039 $x2545 $x443 $x8179 $x7200 $x6858 $x2288 $x6138 $x298)))))))))))
(assert
 (let (($x8130 (= cell_8_4 9)))
 (let (($x7458 (= cell_8_4 8)))
 (let (($x8480 (= cell_8_4 7)))
 (let (($x3970 (= cell_8_4 6)))
 (let (($x757 (= cell_8_4 5)))
 (let (($x5033 (= cell_8_4 4)))
 (let (($x1440 (= cell_8_4 3)))
 (let (($x2867 (= cell_8_4 2)))
 (let (($x6709 (= cell_8_4 1)))
 (or $x6709 $x2867 $x1440 $x5033 $x757 $x3970 $x8480 $x7458 $x8130)))))))))))
(assert
 (let (($x636 (= cell_9_4 2)))
 (let (($x8114 (= cell_9_4 1)))
 (or $x8114 $x636 (= cell_9_4 3) (= cell_9_4 4) (= cell_9_4 5) (= cell_9_4 6) (= cell_9_4 7) (= cell_9_4 8) (= cell_9_4 9)))))
(assert
 (let (($x387 (= cell_1_5 9)))
 (let (($x1776 (= cell_1_5 8)))
 (let (($x7544 (= cell_1_5 7)))
 (let (($x8098 (= cell_1_5 6)))
 (let (($x9168 (= cell_1_5 5)))
 (let (($x3351 (= cell_1_5 4)))
 (let (($x4971 (= cell_1_5 3)))
 (let (($x617 (= cell_1_5 2)))
 (let (($x9886 (= cell_1_5 1)))
 (or $x9886 $x617 $x4971 $x3351 $x9168 $x8098 $x7544 $x1776 $x387)))))))))))
(assert
 (let (($x2338 (= cell_2_5 2)))
 (or (= cell_2_5 1) $x2338 (= cell_2_5 3) (= cell_2_5 4) (= cell_2_5 5) (= cell_2_5 6) (= cell_2_5 7) (= cell_2_5 8) (= cell_2_5 9))))
(assert
 (let (($x7739 (= cell_3_5 9)))
 (let (($x7512 (= cell_3_5 8)))
 (let (($x1370 (= cell_3_5 7)))
 (let (($x9587 (= cell_3_5 6)))
 (let (($x2364 (= cell_3_5 5)))
 (let (($x5750 (= cell_3_5 4)))
 (let (($x9315 (= cell_3_5 3)))
 (let (($x6462 (= cell_3_5 2)))
 (let (($x94 (= cell_3_5 1)))
 (or $x94 $x6462 $x9315 $x5750 $x2364 $x9587 $x1370 $x7512 $x7739)))))))))))
(assert
 (let (($x8858 (= cell_4_5 9)))
 (let (($x5314 (= cell_4_5 8)))
 (let (($x29 (= cell_4_5 7)))
 (let (($x9569 (= cell_4_5 6)))
 (let (($x3505 (= cell_4_5 5)))
 (let (($x9343 (= cell_4_5 4)))
 (let (($x4913 (= cell_4_5 3)))
 (let (($x7827 (= cell_4_5 2)))
 (let (($x691 (= cell_4_5 1)))
 (or $x691 $x7827 $x4913 $x9343 $x3505 $x9569 $x29 $x5314 $x8858)))))))))))
(assert
 (let (($x8920 (= cell_5_5 9)))
 (let (($x9230 (= cell_5_5 8)))
 (let (($x9960 (= cell_5_5 7)))
 (let (($x10012 (= cell_5_5 6)))
 (let (($x2950 (= cell_5_5 5)))
 (let (($x3967 (= cell_5_5 4)))
 (let (($x9867 (= cell_5_5 3)))
 (let (($x3814 (= cell_5_5 2)))
 (let (($x3090 (= cell_5_5 1)))
 (or $x3090 $x3814 $x9867 $x3967 $x2950 $x10012 $x9960 $x9230 $x8920)))))))))))
(assert
 (let (($x2726 (= cell_6_5 9)))
 (let (($x4477 (= cell_6_5 8)))
 (let (($x9548 (= cell_6_5 7)))
 (let (($x510 (= cell_6_5 6)))
 (let (($x9688 (= cell_6_5 5)))
 (let (($x6243 (= cell_6_5 4)))
 (let (($x1851 (= cell_6_5 3)))
 (let (($x4230 (= cell_6_5 2)))
 (let (($x2787 (= cell_6_5 1)))
 (or $x2787 $x4230 $x1851 $x6243 $x9688 $x510 $x9548 $x4477 $x2726)))))))))))
(assert
 (let (($x2896 (= cell_7_5 1)))
 (or $x2896 (= cell_7_5 2) (= cell_7_5 3) (= cell_7_5 4) (= cell_7_5 5) (= cell_7_5 6) (= cell_7_5 7) (= cell_7_5 8) (= cell_7_5 9))))
(assert
 (let (($x2677 (= cell_8_5 9)))
 (let (($x15 (= cell_8_5 8)))
 (let (($x1634 (= cell_8_5 7)))
 (let (($x9452 (= cell_8_5 6)))
 (let (($x4328 (= cell_8_5 5)))
 (let (($x1959 (= cell_8_5 4)))
 (let (($x3355 (= cell_8_5 3)))
 (let (($x9928 (= cell_8_5 2)))
 (let (($x3657 (= cell_8_5 1)))
 (or $x3657 $x9928 $x3355 $x1959 $x4328 $x9452 $x1634 $x15 $x2677)))))))))))
(assert
 (let (($x3277 (= cell_9_5 2)))
 (let (($x3715 (= cell_9_5 1)))
 (or $x3715 $x3277 (= cell_9_5 3) (= cell_9_5 4) (= cell_9_5 5) (= cell_9_5 6) (= cell_9_5 7) (= cell_9_5 8) (= cell_9_5 9)))))
(assert
 (let (($x7934 (= cell_1_6 9)))
 (let (($x8238 (= cell_1_6 8)))
 (let (($x525 (= cell_1_6 7)))
 (let (($x4084 (= cell_1_6 6)))
 (let (($x7884 (= cell_1_6 5)))
 (let (($x7690 (= cell_1_6 4)))
 (let (($x4856 (= cell_1_6 3)))
 (let (($x8885 (= cell_1_6 2)))
 (let (($x1831 (= cell_1_6 1)))
 (or $x1831 $x8885 $x4856 $x7690 $x7884 $x4084 $x525 $x8238 $x7934)))))))))))
(assert
 (let (($x3444 (= cell_2_6 9)))
 (let (($x7220 (= cell_2_6 8)))
 (let (($x8082 (= cell_2_6 7)))
 (let (($x9236 (= cell_2_6 6)))
 (let (($x5030 (= cell_2_6 5)))
 (let (($x4636 (= cell_2_6 4)))
 (let (($x6602 (= cell_2_6 3)))
 (let (($x1974 (= cell_2_6 2)))
 (let (($x1568 (= cell_2_6 1)))
 (or $x1568 $x1974 $x6602 $x4636 $x5030 $x9236 $x8082 $x7220 $x3444)))))))))))
(assert
 (let (($x7418 (= cell_3_6 9)))
 (let (($x9753 (= cell_3_6 8)))
 (let (($x5141 (= cell_3_6 7)))
 (let (($x657 (= cell_3_6 6)))
 (let (($x3928 (= cell_3_6 5)))
 (let (($x9028 (= cell_3_6 4)))
 (let (($x4901 (= cell_3_6 3)))
 (let (($x8947 (= cell_3_6 2)))
 (let (($x3971 (= cell_3_6 1)))
 (or $x3971 $x8947 $x4901 $x9028 $x3928 $x657 $x5141 $x9753 $x7418)))))))))))
(assert
 (let (($x7344 (= cell_4_6 1)))
 (or $x7344 (= cell_4_6 2) (= cell_4_6 3) (= cell_4_6 4) (= cell_4_6 5) (= cell_4_6 6) (= cell_4_6 7) (= cell_4_6 8) (= cell_4_6 9))))
(assert
 (let (($x1883 (= cell_5_6 9)))
 (let (($x7790 (= cell_5_6 8)))
 (let (($x8189 (= cell_5_6 7)))
 (let (($x8501 (= cell_5_6 6)))
 (let (($x7264 (= cell_5_6 5)))
 (let (($x4820 (= cell_5_6 4)))
 (let (($x6236 (= cell_5_6 3)))
 (let (($x8573 (= cell_5_6 2)))
 (let (($x4524 (= cell_5_6 1)))
 (or $x4524 $x8573 $x6236 $x4820 $x7264 $x8501 $x8189 $x7790 $x1883)))))))))))
(assert
 (let (($x1896 (= cell_6_6 9)))
 (let (($x4228 (= cell_6_6 8)))
 (let (($x221 (= cell_6_6 7)))
 (let (($x5574 (= cell_6_6 6)))
 (let (($x2617 (= cell_6_6 5)))
 (let (($x4098 (= cell_6_6 4)))
 (let (($x6492 (= cell_6_6 3)))
 (let (($x3666 (= cell_6_6 2)))
 (let (($x9482 (= cell_6_6 1)))
 (or $x9482 $x3666 $x6492 $x4098 $x2617 $x5574 $x221 $x4228 $x1896)))))))))))
(assert
 (let (($x2495 (= cell_7_6 9)))
 (let (($x4413 (= cell_7_6 8)))
 (let (($x6691 (= cell_7_6 7)))
 (let (($x9709 (= cell_7_6 6)))
 (let (($x1006 (= cell_7_6 5)))
 (let (($x9801 (= cell_7_6 4)))
 (let (($x1030 (= cell_7_6 3)))
 (let (($x4080 (= cell_7_6 2)))
 (let (($x2452 (= cell_7_6 1)))
 (or $x2452 $x4080 $x1030 $x9801 $x1006 $x9709 $x6691 $x4413 $x2495)))))))))))
(assert
 (let (($x1737 (= cell_8_6 2)))
 (or (= cell_8_6 1) $x1737 (= cell_8_6 3) (= cell_8_6 4) (= cell_8_6 5) (= cell_8_6 6) (= cell_8_6 7) (= cell_8_6 8) (= cell_8_6 9))))
(assert
 (let (($x10078 (= cell_9_6 2)))
 (let (($x509 (= cell_9_6 1)))
 (or $x509 $x10078 (= cell_9_6 3) (= cell_9_6 4) (= cell_9_6 5) (= cell_9_6 6) (= cell_9_6 7) (= cell_9_6 8) (= cell_9_6 9)))))
(assert
 (let (($x5580 (= cell_1_7 3)))
 (or (= cell_1_7 1) (= cell_1_7 2) $x5580 (= cell_1_7 4) (= cell_1_7 5) (= cell_1_7 6) (= cell_1_7 7) (= cell_1_7 8) (= cell_1_7 9))))
(assert
 (let (($x3996 (= cell_2_7 9)))
 (let (($x7728 (= cell_2_7 8)))
 (let (($x2629 (= cell_2_7 7)))
 (let (($x4928 (= cell_2_7 6)))
 (let (($x74 (= cell_2_7 5)))
 (let (($x3261 (= cell_2_7 4)))
 (let (($x345 (= cell_2_7 3)))
 (let (($x7123 (= cell_2_7 2)))
 (let (($x7367 (= cell_2_7 1)))
 (or $x7367 $x7123 $x345 $x3261 $x74 $x4928 $x2629 $x7728 $x3996)))))))))))
(assert
 (let (($x1916 (= cell_3_7 1)))
 (or $x1916 (= cell_3_7 2) (= cell_3_7 3) (= cell_3_7 4) (= cell_3_7 5) (= cell_3_7 6) (= cell_3_7 7) (= cell_3_7 8) (= cell_3_7 9))))
(assert
 (let (($x10116 (= cell_4_7 9)))
 (let (($x1159 (= cell_4_7 8)))
 (let (($x7996 (= cell_4_7 7)))
 (let (($x1461 (= cell_4_7 6)))
 (let (($x9634 (= cell_4_7 5)))
 (let (($x1080 (= cell_4_7 4)))
 (let (($x6441 (= cell_4_7 3)))
 (let (($x8344 (= cell_4_7 2)))
 (let (($x6622 (= cell_4_7 1)))
 (or $x6622 $x8344 $x6441 $x1080 $x9634 $x1461 $x7996 $x1159 $x10116)))))))))))
(assert
 (let (($x4550 (= cell_5_7 9)))
 (let (($x4285 (= cell_5_7 8)))
 (let (($x1639 (= cell_5_7 7)))
 (let (($x9583 (= cell_5_7 6)))
 (let (($x3769 (= cell_5_7 5)))
 (let (($x5320 (= cell_5_7 4)))
 (let (($x9243 (= cell_5_7 3)))
 (let (($x4387 (= cell_5_7 2)))
 (let (($x9740 (= cell_5_7 1)))
 (or $x9740 $x4387 $x9243 $x5320 $x3769 $x9583 $x1639 $x4285 $x4550)))))))))))
(assert
 (let (($x7114 (= cell_6_7 2)))
 (or (= cell_6_7 1) $x7114 (= cell_6_7 3) (= cell_6_7 4) (= cell_6_7 5) (= cell_6_7 6) (= cell_6_7 7) (= cell_6_7 8) (= cell_6_7 9))))
(assert
 (let (($x8404 (= cell_7_7 9)))
 (let (($x837 (= cell_7_7 8)))
 (let (($x7295 (= cell_7_7 7)))
 (let (($x2212 (= cell_7_7 6)))
 (let (($x3811 (= cell_7_7 5)))
 (let (($x1687 (= cell_7_7 4)))
 (let (($x1375 (= cell_7_7 3)))
 (let (($x3745 (= cell_7_7 2)))
 (let (($x1383 (= cell_7_7 1)))
 (or $x1383 $x3745 $x1375 $x1687 $x3811 $x2212 $x7295 $x837 $x8404)))))))))))
(assert
 (let (($x4264 (= cell_8_7 9)))
 (let (($x2055 (= cell_8_7 8)))
 (let (($x8349 (= cell_8_7 7)))
 (let (($x3989 (= cell_8_7 6)))
 (let (($x8246 (= cell_8_7 5)))
 (let (($x856 (= cell_8_7 4)))
 (let (($x1463 (= cell_8_7 3)))
 (let (($x7616 (= cell_8_7 2)))
 (let (($x9323 (= cell_8_7 1)))
 (or $x9323 $x7616 $x1463 $x856 $x8246 $x3989 $x8349 $x2055 $x4264)))))))))))
(assert
 (let (($x8168 (= cell_9_7 3)))
 (let (($x5270 (= cell_9_7 2)))
 (let (($x10174 (= cell_9_7 1)))
 (or $x10174 $x5270 $x8168 (= cell_9_7 4) (= cell_9_7 5) (= cell_9_7 6) (= cell_9_7 7) (= cell_9_7 8) (= cell_9_7 9))))))
(assert
 (let (($x5472 (= cell_1_8 9)))
 (let (($x2991 (= cell_1_8 8)))
 (let (($x3087 (= cell_1_8 7)))
 (let (($x8319 (= cell_1_8 6)))
 (let (($x1872 (= cell_1_8 5)))
 (let (($x4236 (= cell_1_8 4)))
 (let (($x269 (= cell_1_8 3)))
 (let (($x7634 (= cell_1_8 2)))
 (let (($x2398 (= cell_1_8 1)))
 (or $x2398 $x7634 $x269 $x4236 $x1872 $x8319 $x3087 $x2991 $x5472)))))))))))
(assert
 (let (($x2939 (= cell_2_8 9)))
 (let (($x630 (= cell_2_8 8)))
 (let (($x10031 (= cell_2_8 7)))
 (let (($x3713 (= cell_2_8 6)))
 (let (($x8672 (= cell_2_8 5)))
 (let (($x7865 (= cell_2_8 4)))
 (let (($x1216 (= cell_2_8 3)))
 (let (($x3507 (= cell_2_8 2)))
 (let (($x3874 (= cell_2_8 1)))
 (or $x3874 $x3507 $x1216 $x7865 $x8672 $x3713 $x10031 $x630 $x2939)))))))))))
(assert
 (let (($x2797 (= cell_3_8 2)))
 (or (= cell_3_8 1) $x2797 (= cell_3_8 3) (= cell_3_8 4) (= cell_3_8 5) (= cell_3_8 6) (= cell_3_8 7) (= cell_3_8 8) (= cell_3_8 9))))
(assert
 (let (($x4093 (= cell_4_8 9)))
 (let (($x1558 (= cell_4_8 8)))
 (let (($x8789 (= cell_4_8 7)))
 (let (($x98 (= cell_4_8 6)))
 (let (($x9565 (= cell_4_8 5)))
 (let (($x4335 (= cell_4_8 4)))
 (let (($x6326 (= cell_4_8 3)))
 (let (($x8864 (= cell_4_8 2)))
 (let (($x9835 (= cell_4_8 1)))
 (or $x9835 $x8864 $x6326 $x4335 $x9565 $x98 $x8789 $x1558 $x4093)))))))))))
(assert
 (let (($x1357 (= cell_5_8 9)))
 (let (($x6615 (= cell_5_8 8)))
 (let (($x5487 (= cell_5_8 7)))
 (let (($x4024 (= cell_5_8 6)))
 (let (($x6426 (= cell_5_8 5)))
 (let (($x8797 (= cell_5_8 4)))
 (let (($x872 (= cell_5_8 3)))
 (let (($x4972 (= cell_5_8 2)))
 (let (($x3105 (= cell_5_8 1)))
 (or $x3105 $x4972 $x872 $x8797 $x6426 $x4024 $x5487 $x6615 $x1357)))))))))))
(assert
 (let (($x7797 (= cell_6_8 9)))
 (let (($x5330 (= cell_6_8 8)))
 (let (($x6886 (= cell_6_8 7)))
 (let (($x2440 (= cell_6_8 6)))
 (let (($x7899 (= cell_6_8 5)))
 (let (($x7085 (= cell_6_8 4)))
 (let (($x3308 (= cell_6_8 3)))
 (let (($x6999 (= cell_6_8 2)))
 (let (($x8008 (= cell_6_8 1)))
 (or $x8008 $x6999 $x3308 $x7085 $x7899 $x2440 $x6886 $x5330 $x7797)))))))))))
(assert
 (let (($x2978 (= cell_7_8 9)))
 (let (($x3635 (= cell_7_8 8)))
 (let (($x4622 (= cell_7_8 7)))
 (let (($x3646 (= cell_7_8 6)))
 (let (($x8303 (= cell_7_8 5)))
 (let (($x4504 (= cell_7_8 4)))
 (let (($x1300 (= cell_7_8 3)))
 (let (($x9595 (= cell_7_8 2)))
 (let (($x4164 (= cell_7_8 1)))
 (or $x4164 $x9595 $x1300 $x4504 $x8303 $x3646 $x4622 $x3635 $x2978)))))))))))
(assert
 (let (($x7481 (= cell_8_8 1)))
 (or $x7481 (= cell_8_8 2) (= cell_8_8 3) (= cell_8_8 4) (= cell_8_8 5) (= cell_8_8 6) (= cell_8_8 7) (= cell_8_8 8) (= cell_8_8 9))))
(assert
 (let (($x9520 (= cell_9_8 2)))
 (let (($x5384 (= cell_9_8 1)))
 (or $x5384 $x9520 (= cell_9_8 3) (= cell_9_8 4) (= cell_9_8 5) (= cell_9_8 6) (= cell_9_8 7) (= cell_9_8 8) (= cell_9_8 9)))))
(assert
 (let (($x1249 (= cell_1_9 9)))
 (let (($x9091 (= cell_1_9 8)))
 (let (($x3439 (= cell_1_9 7)))
 (let (($x4487 (= cell_1_9 6)))
 (let (($x3991 (= cell_1_9 5)))
 (let (($x2084 (= cell_1_9 4)))
 (let (($x7398 (= cell_1_9 3)))
 (let (($x2149 (= cell_1_9 2)))
 (let (($x8906 (= cell_1_9 1)))
 (or $x8906 $x2149 $x7398 $x2084 $x3991 $x4487 $x3439 $x9091 $x1249)))))))))))
(assert
 (let (($x8315 (= cell_2_9 9)))
 (let (($x4476 (= cell_2_9 8)))
 (let (($x5575 (= cell_2_9 7)))
 (let (($x5031 (= cell_2_9 6)))
 (let (($x2727 (= cell_2_9 5)))
 (let (($x8881 (= cell_2_9 4)))
 (let (($x3448 (= cell_2_9 3)))
 (let (($x10263 (= cell_2_9 2)))
 (let (($x8023 (= cell_2_9 1)))
 (or $x8023 $x10263 $x3448 $x8881 $x2727 $x5031 $x5575 $x4476 $x8315)))))))))))
(assert
 (let (($x5800 (= cell_3_9 9)))
 (let (($x8529 (= cell_3_9 8)))
 (let (($x7468 (= cell_3_9 7)))
 (let (($x7172 (= cell_3_9 6)))
 (let (($x4263 (= cell_3_9 5)))
 (let (($x6212 (= cell_3_9 4)))
 (let (($x8718 (= cell_3_9 3)))
 (let (($x9501 (= cell_3_9 2)))
 (let (($x8808 (= cell_3_9 1)))
 (or $x8808 $x9501 $x8718 $x6212 $x4263 $x7172 $x7468 $x8529 $x5800)))))))))))
(assert
 (let (($x6447 (= cell_4_9 9)))
 (let (($x2072 (= cell_4_9 8)))
 (let (($x1533 (= cell_4_9 7)))
 (let (($x5112 (= cell_4_9 6)))
 (let (($x2895 (= cell_4_9 5)))
 (let (($x4126 (= cell_4_9 4)))
 (let (($x8590 (= cell_4_9 3)))
 (let (($x939 (= cell_4_9 2)))
 (let (($x3270 (= cell_4_9 1)))
 (or $x3270 $x939 $x8590 $x4126 $x2895 $x5112 $x1533 $x2072 $x6447)))))))))))
(assert
 (let (($x253 (= cell_5_9 1)))
 (or $x253 (= cell_5_9 2) (= cell_5_9 3) (= cell_5_9 4) (= cell_5_9 5) (= cell_5_9 6) (= cell_5_9 7) (= cell_5_9 8) (= cell_5_9 9))))
(assert
 (let (($x4713 (= cell_6_9 9)))
 (let (($x7400 (= cell_6_9 8)))
 (let (($x5648 (= cell_6_9 7)))
 (let (($x1553 (= cell_6_9 6)))
 (let (($x6113 (= cell_6_9 5)))
 (let (($x1827 (= cell_6_9 4)))
 (let (($x2766 (= cell_6_9 3)))
 (let (($x5836 (= cell_6_9 2)))
 (let (($x6143 (= cell_6_9 1)))
 (or $x6143 $x5836 $x2766 $x1827 $x6113 $x1553 $x5648 $x7400 $x4713)))))))))))
(assert
 (let (($x8299 (= cell_7_9 2)))
 (or (= cell_7_9 1) $x8299 (= cell_7_9 3) (= cell_7_9 4) (= cell_7_9 5) (= cell_7_9 6) (= cell_7_9 7) (= cell_7_9 8) (= cell_7_9 9))))
(assert
 (let (($x8523 (= cell_8_9 2)))
 (let (($x943 (= cell_8_9 1)))
 (or $x943 $x8523 (= cell_8_9 3) (= cell_8_9 4) (= cell_8_9 5) (= cell_8_9 6) (= cell_8_9 7) (= cell_8_9 8) (= cell_8_9 9)))))
(assert
 (let (($x7487 (= cell_9_9 2)))
 (let (($x7722 (= cell_9_9 1)))
 (or $x7722 $x7487 (= cell_9_9 3) (= cell_9_9 4) (= cell_9_9 5) (= cell_9_9 6) (= cell_9_9 7) (= cell_9_9 8) (= cell_9_9 9)))))
(assert
 (and (distinct cell_1_1 cell_1_2 cell_1_3 cell_1_4 cell_1_5 cell_1_6 cell_1_7 cell_1_8 cell_1_9) true))
(assert
 (and (distinct cell_2_1 cell_2_2 cell_2_3 cell_2_4 cell_2_5 cell_2_6 cell_2_7 cell_2_8 cell_2_9) true))
(assert
 (and (distinct cell_3_1 cell_3_2 cell_3_3 cell_3_4 cell_3_5 cell_3_6 cell_3_7 cell_3_8 cell_3_9) true))
(assert
 (and (distinct cell_4_1 cell_4_2 cell_4_3 cell_4_4 cell_4_5 cell_4_6 cell_4_7 cell_4_8 cell_4_9) true))
(assert
 (and (distinct cell_5_1 cell_5_2 cell_5_3 cell_5_4 cell_5_5 cell_5_6 cell_5_7 cell_5_8 cell_5_9) true))
(assert
 (and (distinct cell_6_1 cell_6_2 cell_6_3 cell_6_4 cell_6_5 cell_6_6 cell_6_7 cell_6_8 cell_6_9) true))
(assert
 (and (distinct cell_7_1 cell_7_2 cell_7_3 cell_7_4 cell_7_5 cell_7_6 cell_7_7 cell_7_8 cell_7_9) true))
(assert
 (and (distinct cell_8_1 cell_8_2 cell_8_3 cell_8_4 cell_8_5 cell_8_6 cell_8_7 cell_8_8 cell_8_9) true))
(assert
 (and (distinct cell_9_1 cell_9_2 cell_9_3 cell_9_4 cell_9_5 cell_9_6 cell_9_7 cell_9_8 cell_9_9) true))
(assert
 (and (distinct cell_1_1 cell_2_1 cell_3_1 cell_4_1 cell_5_1 cell_6_1 cell_7_1 cell_8_1 cell_9_1) true))
(assert
 (and (distinct cell_1_2 cell_2_2 cell_3_2 cell_4_2 cell_5_2 cell_6_2 cell_7_2 cell_8_2 cell_9_2) true))
(assert
 (and (distinct cell_1_3 cell_2_3 cell_3_3 cell_4_3 cell_5_3 cell_6_3 cell_7_3 cell_8_3 cell_9_3) true))
(assert
 (and (distinct cell_1_4 cell_2_4 cell_3_4 cell_4_4 cell_5_4 cell_6_4 cell_7_4 cell_8_4 cell_9_4) true))
(assert
 (and (distinct cell_1_5 cell_2_5 cell_3_5 cell_4_5 cell_5_5 cell_6_5 cell_7_5 cell_8_5 cell_9_5) true))
(assert
 (and (distinct cell_1_6 cell_2_6 cell_3_6 cell_4_6 cell_5_6 cell_6_6 cell_7_6 cell_8_6 cell_9_6) true))
(assert
 (and (distinct cell_1_7 cell_2_7 cell_3_7 cell_4_7 cell_5_7 cell_6_7 cell_7_7 cell_8_7 cell_9_7) true))
(assert
 (and (distinct cell_1_8 cell_2_8 cell_3_8 cell_4_8 cell_5_8 cell_6_8 cell_7_8 cell_8_8 cell_9_8) true))
(assert
 (and (distinct cell_1_9 cell_2_9 cell_3_9 cell_4_9 cell_5_9 cell_6_9 cell_7_9 cell_8_9 cell_9_9) true))
(assert
 (and (distinct cell_1_1 cell_1_2 cell_1_3 cell_2_1 cell_2_2 cell_2_3 cell_3_1 cell_3_2 cell_3_3) true))
(assert
 (and (distinct cell_1_4 cell_1_5 cell_1_6 cell_2_4 cell_2_5 cell_2_6 cell_3_4 cell_3_5 cell_3_6) true))
(assert
 (and (distinct cell_1_7 cell_1_8 cell_1_9 cell_2_7 cell_2_8 cell_2_9 cell_3_7 cell_3_8 cell_3_9) true))
(assert
 (and (distinct cell_4_1 cell_4_2 cell_4_3 cell_5_1 cell_5_2 cell_5_3 cell_6_1 cell_6_2 cell_6_3) true))
(assert
 (and (distinct cell_4_4 cell_4_5 cell_4_6 cell_5_4 cell_5_5 cell_5_6 cell_6_4 cell_6_5 cell_6_6) true))
(assert
 (and (distinct cell_4_7 cell_4_8 cell_4_9 cell_5_7 cell_5_8 cell_5_9 cell_6_7 cell_6_8 cell_6_9) true))
(assert
 (and (distinct cell_7_1 cell_7_2 cell_7_3 cell_8_1 cell_8_2 cell_8_3 cell_9_1 cell_9_2 cell_9_3) true))
(assert
 (and (distinct cell_7_4 cell_7_5 cell_7_6 cell_8_4 cell_8_5 cell_8_6 cell_9_4 cell_9_5 cell_9_6) true))
(assert
 (and (distinct cell_7_7 cell_7_8 cell_7_9 cell_8_7 cell_8_8 cell_8_9 cell_9_7 cell_9_8 cell_9_9) true))
(assert
 (let (($x6575 (and (distinct cell_5_9 cell_6_8 cell_7_7 cell_8_6) true)))
 (let (($x1996 (and (distinct cell_2_9 cell_3_8 cell_4_7 cell_5_6 cell_6_5 cell_7_4 cell_8_3 cell_9_2) true)))
 (let (($x7329 (and (distinct cell_1_8 cell_2_7 cell_3_6 cell_4_5 cell_5_4 cell_6_3 cell_7_2 cell_8_1) true)))
 (let (($x1788 (and (distinct cell_1_5 cell_2_4 cell_3_3 cell_4_2) true)))
 (let (($x3288 (and (distinct cell_5_1 cell_6_2 cell_7_3 cell_8_4) true)))
 (let (($x3131 (and (distinct cell_2_1 cell_3_2 cell_4_3 cell_5_4 cell_6_5 cell_7_6 cell_8_7 cell_9_8) true)))
 (let (($x1040 (and (distinct cell_1_2 cell_2_3 cell_3_4 cell_4_5 cell_5_6 cell_6_7 cell_7_8 cell_8_9) true)))
 (let (($x4980 (and (distinct cell_1_5 cell_2_6 cell_3_7 cell_4_8) true)))
 (and $x4980 $x1040 $x3131 $x3288 $x1788 $x7329 $x1996 $x6575))))))))))
(assert
 (= cell_2_6 3))
(check-sat)
